p cnf 96 354
41 73 0
45 49 55 56 0
53 60 0
29 47 63 0
25 52 0
38 40 57 0
34 44 91 0
30 31 33 43 0
54 62 0
24 26 48 51 67 0
68 69 70 71 0
39 46 72 0
50 74 75 0
61 78 79 83 0
65 84 85 0
86 87 0
36 88 0
58 76 89 92 0
81 94 95 96 0
20 21 23 0
18 42 0
17 32 0
16 28 0
15 19 0
-41 -45 0
-13 -41 0
-41 -53 0
-12 -41 0
-41 -63 0
-13 -45 0
-45 -53 0
-12 -45 0
-45 -63 0
-13 -53 0
-12 -13 0
-13 -63 0
-12 -53 0
-53 -63 0
-12 -63 0
-40 -52 0
-34 -52 0
-11 -52 0
-52 -80 0
-43 -52 0
-34 -40 0
-11 -40 0
-40 -80 0
-40 -43 0
-11 -34 0
-34 -80 0
-34 -43 0
-11 -80 0
-11 -43 0
-43 -80 0
-48 -54 0
-54 -68 0
-54 -72 0
-50 -54 0
-54 -61 0
-48 -68 0
-48 -72 0
-48 -50 0
-48 -61 0
-68 -72 0
-50 -68 0
-61 -68 0
-50 -72 0
-61 -72 0
-50 -61 0
-10 -84 0
-10 -86 0
-9 -10 0
-10 -88 0
-10 -58 0
-84 -86 0
-9 -84 0
-84 -88 0
-58 -84 0
-9 -86 0
-86 -88 0
-58 -86 0
-9 -88 0
-9 -58 0
-58 -88 0
-8 -94 0
-8 -23 0
-8 -18 0
-8 -32 0
-8 -66 0
-23 -94 0
-18 -94 0
-32 -94 0
-66 -94 0
-18 -23 0
-23 -32 0
-23 -66 0
-18 -32 0
-18 -66 0
-32 -66 0
-7 -28 0
-7 -35 0
-7 -37 0
-7 -90 0
-7 -15 0
-28 -35 0
-28 -37 0
-28 -90 0
-15 -28 0
-35 -37 0
-35 -90 0
-15 -35 0
-37 -90 0
-15 -37 0
-15 -90 0
-41 -52 0
-41 -54 0
-10 -41 0
-8 -41 0
-7 -41 0
-52 -54 0
-10 -52 0
-8 -52 0
-7 -52 0
-10 -54 0
-8 -54 0
-7 -54 0
-8 -10 0
-7 -10 0
-7 -8 0
-40 -45 0
-45 -48 0
-45 -84 0
-45 -94 0
-28 -45 0
-40 -48 0
-40 -84 0
-40 -94 0
-28 -40 0
-48 -84 0
-48 -94 0
-28 -48 0
-84 -94 0
-28 -84 0
-28 -94 0
-13 -34 0
-13 -68 0
-13 -86 0
-13 -23 0
-13 -35 0
-34 -68 0
-34 -86 0
-23 -34 0
-34 -35 0
-68 -86 0
-23 -68 0
-35 -68 0
-23 -86 0
-35 -86 0
-23 -35 0
-11 -53 0
-53 -72 0
-9 -53 0
-18 -53 0
-37 -53 0
-11 -72 0
-9 -11 0
-11 -18 0
-11 -37 0
-9 -72 0
-18 -72 0
-37 -72 0
-9 -18 0
-9 -37 0
-18 -37 0
-12 -80 0
-12 -50 0
-12 -88 0
-12 -32 0
-12 -90 0
-50 -80 0
-80 -88 0
-32 -80 0
-80 -90 0
-50 -88 0
-32 -50 0
-50 -90 0
-32 -88 0
-88 -90 0
-32 -90 0
-43 -63 0
-61 -63 0
-58 -63 0
-63 -66 0
-15 -63 0
-43 -61 0
-43 -58 0
-43 -66 0
-15 -43 0
-58 -61 0
-61 -66 0
-15 -61 0
-58 -66 0
-15 -58 0
-15 -66 0
-49 -77 0
-49 -60 0
-60 -77 0
-26 -69 0
-26 -39 0
-39 -69 0
-21 -81 0
-42 -81 0
-21 -42 0
-26 -49 0
-49 -81 0
-26 -81 0
-69 -77 0
-21 -77 0
-21 -69 0
-39 -60 0
-42 -60 0
-39 -42 0
-25 -44 0
-25 -31 0
-31 -44 0
-62 -70 0
-62 -78 0
-70 -78 0
-59 -87 0
-59 -76 0
-76 -87 0
-25 -62 0
-25 -59 0
-59 -62 0
-44 -70 0
-44 -87 0
-70 -87 0
-31 -78 0
-31 -76 0
-76 -78 0
-55 -73 0
-47 -73 0
-47 -55 0
-6 -85 0
-6 -89 0
-85 -89 0
-5 -95 0
-4 -5 0
-4 -95 0
-6 -73 0
-5 -73 0
-5 -6 0
-55 -85 0
-55 -95 0
-85 -95 0
-47 -89 0
-4 -47 0
-4 -89 0
-56 -82 0
-56 -64 0
-29 -56 0
-64 -82 0
-29 -82 0
-29 -64 0
-38 -91 0
-14 -38 0
-30 -38 0
-14 -91 0
-30 -91 0
-14 -30 0
-24 -71 0
-24 -74 0
-24 -79 0
-71 -74 0
-71 -79 0
-74 -79 0
-20 -96 0
-17 -96 0
-3 -96 0
-17 -20 0
-3 -20 0
-3 -17 0
-38 -56 0
-24 -56 0
-56 -96 0
-24 -38 0
-38 -96 0
-24 -96 0
-82 -91 0
-71 -82 0
-20 -82 0
-71 -91 0
-20 -91 0
-20 -71 0
-14 -64 0
-64 -74 0
-17 -64 0
-14 -74 0
-14 -17 0
-17 -74 0
-29 -30 0
-29 -79 0
-3 -29 0
-30 -79 0
-3 -30 0
-3 -79 0
-57 -93 0
-22 -57 0
-33 -57 0
-22 -93 0
-33 -93 0
-22 -33 0
-46 -67 0
-67 -75 0
-67 -83 0
-46 -75 0
-46 -83 0
-75 -83 0
-27 -65 0
-36 -65 0
-65 -92 0
-27 -36 0
-27 -92 0
-36 -92 0
-2 -16 0
-1 -16 0
-16 -19 0
-1 -2 0
-2 -19 0
-1 -19 0
-57 -67 0
-57 -65 0
-16 -57 0
-65 -67 0
-16 -67 0
-16 -65 0
-46 -93 0
-27 -93 0
-2 -93 0
-27 -46 0
-2 -46 0
-2 -27 0
-22 -75 0
-22 -36 0
-1 -22 0
-36 -75 0
-1 -75 0
-1 -36 0
-33 -83 0
-33 -92 0
-19 -33 0
-83 -92 0
-19 -83 0
-19 -92 0
